# Solution for model r3_t9_m3_6 Batch Number: 1
# Finished Task: 8 / 9
# Makespan: 543.0, Total Distance: 397.0, Total Time: 0.4017
# R O S F Batch
0 0 11 0.0 0.0 -1
1 1 5 0.0 0.0 -1
2 2 6 0.0 0.0 -1
3 1 -1 431.0 455.0 0
4 2 -1 493.0 518.0 0
5 1 9 304.0 336.0 0
6 2 10 136.0 167.0 0
7 -1 -1 -1.0 -1.0 0
8 0 -1 518.0 543.0 0
9 1 3 393.0 422.0 0
10 2 4 422.0 451.0 0
11 0 8 212.0 244.0 0
